NAME: burma14
TYPE: TSP
COMMENT: 14-Staedte in Burma (Zaw Win)
DIMENSION: 14
EDGE_WEIGHT_TYPE: GEO
EDGE_WEIGHT_FORMAT: FUNCTION 
DISPLAY_DATA_TYPE: COORD_DISPLAY
NODE_COORD_SECTION
1 6470 6100
2 6470 4440
3 10090 2540
4 12390 3370
5 15230 7240
6 12000 6050
7 10470 7020
8 7200 6290
9 6300 7380
10 4050 8120
11 6530 7380
12 11520 5590
13 9410 7130
14 10090 4550
EOF



